1062,787
593,527
533,383
654,321
1045,670
699,349
707,393
512,283
681,646
611,-38
464,833
1108,545
829,258
681,-134
644,520
1080,535
744,343
707,393
617,605
609,458
762,246
672,347
613,539
847,-107
977,452
464,-21
885,806
567,369
804,237
620,791
681,-134
945,770
382,818
844,86
628,433
681,-14
681,406
850,283
